Ru                                      
   1.00000000000000     
     2.6896618492778441    0.0000000000000000    0.0000000000000000
     1.3448309246389221    2.3293154890644447    0.0000000000000000
     0.0000000000000000    0.0000000000000000   21.3830343422118005
   Ru
     4
Selective dynamics
Direct
  0.6666666666666643  0.6666666666666643  0.0000000000000000   F   F   F
  0.0000000000000000  0.0000000000000000  0.0995030957730094   F   F   F
  0.6666666666666643  0.6666666666666643  0.1992258058155787   T   T   T
 -0.0000000000000000 -0.0000000000000000  0.2961368847155145   T   T   T
 
  0.00000000E+00  0.00000000E+00  0.00000000E+00
  0.00000000E+00  0.00000000E+00  0.00000000E+00
  0.00000000E+00  0.00000000E+00  0.00000000E+00
  0.00000000E+00  0.00000000E+00  0.00000000E+00
