Ru 
 1.0000000000000000
    10.7586473971113765    0.0000000000000000    0.0000000000000000
     5.3793236985556883    9.3172619562577790    0.0000000000000000
     0.0000000000000000    0.0000000000000000   21.3830343422118005
  Ru
  64
Selective dynamics
Direct
  0.1666666666666660  0.1666666666666661  0.0000000000000000   F   F   F
  0.6666666666666660  0.1666666666666661  0.1992258058155787   T   T   T
  0.5000000000000000  0.0000000000000000  0.2961368847155145   T   T   T
  0.6666666666666660  0.4166666666666661  0.0000000000000000   F   F   F
  0.5000000000000000  0.2500000000000000  0.0995030957730094   F   F   F
  0.6666666666666660  0.4166666666666661  0.1992258058155787   T   T   T
  0.5000000000000000  0.2500000000000000  0.2961368847155145   T   T   T
  0.6666666666666662  0.6666666666666661  0.0000000000000000   F   F   F
  0.5000000000000001  0.5000000000000000  0.0995030957730094   F   F   F
  0.6666666666666662  0.6666666666666661  0.1992258058155787   T   T   T
  0.5000000000000001  0.5000000000000000  0.2961368847155145   T   T   T
  0.6666666666666662  0.9166666666666660  0.0000000000000000   F   F   F
  0.5000000000000000  0.7500000000000000  0.0995030957730094   F   F   F
  0.6666666666666662  0.9166666666666660  0.1992258058155787   T   T   T
  0.5000000000000000  0.0000000000000000  0.0995030957730094   F   F   F
  0.5000000000000000  0.7500000000000000  0.2961368847155145   T   T   T
  0.7500000000000000  0.0000000000000000  0.0995030957730094   F   F   F
  0.9166666666666662  0.1666666666666661  0.1992258058155787   T   T   T
  0.7500000000000000  0.0000000000000000  0.2961368847155145   T   T   T
  0.9166666666666662  0.4166666666666661  0.0000000000000000   F   F   F
  0.7500000000000000  0.2500000000000000  0.0995030957730094   F   F   F
  0.9166666666666662  0.4166666666666661  0.1992258058155787   T   T   T
  0.7500000000000000  0.2500000000000000  0.2961368847155145   T   T   T
  0.9166666666666662  0.6666666666666661  0.0000000000000000   F   F   F
  0.7500000000000000  0.5000000000000000  0.0995030957730094   F   F   F
  0.9166666666666662  0.6666666666666661  0.1992258058155787   T   T   T
  0.7500000000000000  0.5000000000000000  0.2961368847155145   T   T   T
  0.9166666666666662  0.9166666666666660  0.0000000000000000   F   F   F
  0.7499999999999999  0.7500000000000000  0.0995030957730094   F   F   F
  0.9166666666666662  0.1666666666666661  0.0000000000000000   F   F   F
  0.6666666666666660  0.1666666666666661  0.0000000000000000   F   F   F
  0.2500000000000001  0.7500000000000000  0.2961368847155145   T   T   T
  0.4166666666666662  0.9166666666666660  0.1992258058155787   T   T   T
  0.0000000000000000  0.0000000000000000  0.0995030957730094   F   F   F
  0.1666666666666660  0.1666666666666661  0.1992258058155787   T   T   T
  0.0000000000000000  0.0000000000000000  0.2961368847155145   T   T   T
  0.1666666666666661  0.4166666666666661  0.0000000000000000   F   F   F
  0.0000000000000000  0.2500000000000000  0.0995030957730094   F   F   F
  0.1666666666666661  0.4166666666666661  0.1992258058155787   T   T   T
  0.0000000000000000  0.2500000000000000  0.2961368847155145   T   T   T
  0.1666666666666660  0.6666666666666661  0.0000000000000000   F   F   F
  0.0000000000000000  0.5000000000000000  0.0995030957730094   F   F   F
  0.1666666666666660  0.6666666666666661  0.1992258058155787   T   T   T
  0.0000000000000000  0.5000000000000000  0.2961368847155145   T   T   T
  0.1666666666666661  0.9166666666666660  0.0000000000000000   F   F   F
  0.0000000000000000  0.7500000000000000  0.0995030957730094   F   F   F
  0.1666666666666661  0.9166666666666660  0.1992258058155787   T   T   T
  0.0000000000000000  0.7500000000000000  0.2961368847155145   T   T   T
  0.4166666666666661  0.1666666666666661  0.0000000000000000   F   F   F
  0.2500000000000000  0.0000000000000000  0.0995030957730094   F   F   F
  0.4166666666666661  0.1666666666666661  0.1992258058155787   T   T   T
  0.2500000000000000  0.0000000000000000  0.2961368847155145   T   T   T
  0.4166666666666661  0.4166666666666661  0.0000000000000000   F   F   F
  0.2500000000000001  0.2500000000000000  0.0995030957730094   F   F   F
  0.4166666666666661  0.4166666666666661  0.1992258058155787   T   T   T
  0.2500000000000001  0.2500000000000000  0.2961368847155145   T   T   T
  0.4166666666666661  0.6666666666666661  0.0000000000000000   F   F   F
  0.2500000000000000  0.5000000000000000  0.0995030957730094   F   F   F
  0.4166666666666661  0.6666666666666661  0.1992258058155787   T   T   T
  0.2500000000000000  0.5000000000000000  0.2961368847155145   T   T   T
  0.4166666666666662  0.9166666666666660  0.0000000000000000   F   F   F
  0.2500000000000001  0.7500000000000000  0.0995030957730094   F   F   F
  0.9166666666666662  0.9166666666666660  0.1992258058155787   T   T   T
  0.7499999999999999  0.7500000000000000  0.2961368847155145   T   T   T
